NAME: olomouc
TYPE: TSP
DIMENSION: 22
EDGE_WEIGHT_TYPE: GEO
COMMENT: MODERN_GPS_DIPLOMA
NODE_COORD_SECTION
 1 49.572577 17.207908
 2 49.583625 17.236489
 3 49.580147 17.244257
 4 49.586574 17.254685
 5 49.593946 17.250051
 6 49.598081 17.256101
 7 49.596053 17.258084
 8 49.593586 17.262381
 9 49.597623 17.247401
 10 49.602311 17.239115
 11 49.612941 17.225393
 12 49.611183 17.260165
 13 49.612921 17.262096
 14 49.606316 17.264435
 15 49.598820 17.270122
 16 49.593827 17.264285
 17 49.574713 17.279263
 18 49.590110 17.212417
 19 49.593424 17.236111
 20 49.597138 17.234459
 21 49.603000 17.244351
 22 49.592777 17.277364
EOF